NAME: ACTUAL_TOURS/amz2220
TYPE: TOUR
COMMENT: RouteID_ea71a94a-d0e4-49f2-bf2b-0cdab10302de
DIMENSION: 194
TOUR_SECTION
95
99
192
188
182
174
64
153
152
193
98
186
49
61
147
176
166
128
44
119
167
56
135
105
75
39
136
21
149
72
5
81
129
83
73
139
118
187
156
111
163
55
123
194
43
89
82
57
141
162
13
17
171
151
102
91
59
2
19
51
104
9
115
27
164
25
160
28
117
131
14
106
109
155
68
11
185
67
31
178
88
33
58
133
38
40
110
183
6
22
7
140
32
100
48
3
175
191
94
114
122
148
159
42
157
60
146
120
16
53
142
150
34
165
1
103
189
41
35
50
116
23
84
54
85
190
169
130
90
15
10
101
170
46
113
74
26
76
127
168
177
107
161
137
154
18
30
125
132
80
172
71
24
70
36
93
112
45
158
138
134
78
86
65
96
179
126
47
4
181
121
77
63
62
69
29
92
108
66
79
12
173
180
97
143
37
184
52
144
8
20
145
87
124
-1
EOF
